Set parameter TSPort to value 51199
Set parameter TokenServer to value "open-license1.lanl.gov"
Set parameter TimeLimit to value 2048
Set parameter Threads to value 1
Gurobi Optimizer version 10.0.3 build v10.0.3rc0 (linux64)

CPU model: Intel(R) Xeon(R) CPU E5-2695 v4 @ 2.10GHz, instruction set [SSE2|AVX|AVX2]
Thread count: 36 physical cores, 72 logical processors, using up to 1 threads

Optimize a model with 0 rows, 2396 columns and 0 nonzeros
Model fingerprint: 0x5b2a166b
Model has 10889 quadratic objective terms
Variable types: 0 continuous, 2396 integer (2396 binary)
Coefficient statistics:
  Matrix range     [0e+00, 0e+00]
  Objective range  [2e+00, 3e+01]
  QObjective range [8e+00, 8e+00]
  Bounds range     [1e+00, 1e+00]
  RHS range        [0e+00, 0e+00]
Found heuristic solution: objective 0.0000000
Found heuristic solution: objective -4126.000000
Found heuristic solution: objective -14582.00000
Found heuristic solution: objective -14640.00000
Presolve removed 0 rows and 3 columns
Presolve time: 0.38s
Presolved: 10886 rows, 13279 columns, 32658 nonzeros
Variable types: 0 continuous, 13279 integer (13279 binary)

Root relaxation: objective -2.046700e+04, 3400 iterations, 0.05 seconds (0.02 work units)

    Nodes    |    Current Node    |     Objective Bounds      |     Work
 Expl Unexpl |  Obj  Depth IntInf | Incumbent    BestBd   Gap | It/Node Time

     0     0 -20467.000    0 2393 -14640.000 -20467.000  39.8%     -    0s
     0     0 -19098.000    0 3058 -14640.000 -19098.000  30.5%     -    1s
     0     0 -18865.500    0 3215 -14640.000 -18865.500  28.9%     -    1s
     0     0 -18856.000    0 3214 -14640.000 -18856.000  28.8%     -    1s
     0     0 -18539.250    0 3455 -14640.000 -18539.250  26.6%     -    2s
     0     0 -18539.250    0 3415 -14640.000 -18539.250  26.6%     -    2s
     0     2 -18539.250    0 3400 -14640.000 -18539.250  26.6%     -    5s
   245   247 -17517.500  123 4158 -14640.000 -18528.000  26.6%   107   10s
   544   546 -16460.000  272 4465 -14640.000 -18528.000  26.6%  92.5   15s
   857   859 -15647.500  431 4654 -14640.000 -18528.000  26.6%  79.0   20s
   999  1001 -15307.000  502 4550 -14640.000 -18528.000  26.6%  75.8   25s
  1365  1311 -14793.500  616 5443 -14640.000 -18527.500  26.6%  66.4   31s
  1369  1314 -15272.000  510 3784 -14640.000 -18007.000  23.0%  66.2   35s
  1372  1316 -14823.500  607 4258 -14640.000 -17671.124  20.7%  66.1   40s
  1379  1320 -17333.770  123 4853 -14640.000 -17333.770  18.4%  65.7   56s
  1380  1321 -15436.000  473 5284 -14640.000 -17237.307  17.7%  65.7   74s
  1381  1322 -17216.267   74 5416 -14640.000 -17216.267  17.6%  65.7   83s
  1382  1322 -15627.500  435 5500 -14640.000 -17210.382  17.6%  65.6   86s
  1388  1326 -17206.892   25 5731 -14640.000 -17206.892  17.5%  65.3   90s
  1392  1329 -14742.000  635 6066 -14640.000 -16926.019  15.6%  65.1  146s
  1393  1330 -16059.500  338 6493 -14640.000 -16875.070  15.3%  65.1  186s
  1394  1330 -14893.000  585 6664 -14640.000 -16861.069  15.2%  65.0  199s
  1395  1331 -16352.000  289 6818 -14640.000 -16857.432  15.1%  65.0  205s
  1396  1332 -16207.000  313 6882 -14640.000 -16855.396  15.1%  64.9  210s
  1398  1333 -16248.000  307 6945 -14640.000 -16854.143  15.1%  64.9  215s
  1405  1338 -16656.558   61 7515 -14640.000 -16656.558  13.8%  64.5  319s
  1406  1338 -16617.791  143 7883 -14640.000 -16617.791  13.5%  64.5  386s
  1407  1339 -14661.500  659 8166 -14640.000 -16607.982  13.4%  64.4  411s
  1408  1340 -14861.500  596 8206 -14640.000 -16604.873  13.4%  64.4  423s
  1409  1340 -16604.074  143 8318 -14640.000 -16604.074  13.4%  64.3  429s
  1410  1341 -16603.691  159 8408 -14640.000 -16603.691  13.4%  64.3  432s
  1412  1342 -16466.000  272 8472 -14640.000 -16603.503  13.4%  64.2  435s
  1416  1345 -16462.109  219 9027 -14640.000 -16462.109  12.4%  64.0  565s
  1417  1346 -14793.500  617 9233 -14640.000 -16434.642  12.3%  64.0  644s
  1418  1346 -16427.789  156 9424 -14640.000 -16427.789  12.2%  63.9  673s
  1419  1347 -16425.385  224 9520 -14640.000 -16425.385  12.2%  63.9  687s
  1420  1348 -15223.000  520 9591 -14640.000 -16424.619  12.2%  63.8  694s
  1421  1348 -14974.000  570 9652 -14640.000 -16424.411  12.2%  63.8  698s
  1422  1349 -16424.338   13 9683 -14640.000 -16424.338  12.2%  63.8  700s
  1426  1352 -16010.500  345 9714 -14640.000 -16424.124  12.2%  63.6  705s
  1429  1354 -16320.703  250 9996 -14640.000 -16320.703  11.5%  63.4  858s
  1430  1354 -16301.238  140 10346 -14640.000 -16301.238  11.3%  63.4  946s
  1431  1355 -16297.870  158 10470 -14640.000 -16297.870  11.3%  63.4  972s
  1432  1356 -15205.000  523 10584 -14640.000 -16296.552  11.3%  63.3  985s
  1433  1356 -16296.016  152 10578 -14640.000 -16296.016  11.3%  63.3  993s
  1434  1357 -16295.816   95 10631 -14640.000 -16295.816  11.3%  63.2  997s
  1436  1358 -16295.719  177 10649 -14640.000 -16295.719  11.3%  63.1 1001s
  1439  1360 -16295.697  179 10675 -14640.000 -16295.697  11.3%  63.0 1005s
  1440  1361 -16239.876  219 10702 -14640.000 -16239.876  10.9%  63.0 1140s
  1441  1362 -16228.546  146 10819 -14640.000 -16228.546  10.9%  62.9 1218s
  1442  1362 -16226.415  268 10953 -14640.000 -16226.415  10.8%  62.9 1239s
  1443  1363 -16225.934  201 10954 -14640.000 -16225.934  10.8%  62.8 1250s
  1445  1364 -16225.725  250 11026 -14640.000 -16225.725  10.8%  62.7 1257s
  1447  1366 -14804.500  612 11019 -14640.000 -16225.682  10.8%  62.7 1260s
  1450  1368 -16185.225   82 10931 -14640.000 -16185.225  10.6%  62.5 1387s
  1451  1368 -15737.500  403 11009 -14640.000 -16177.784  10.5%  62.5 1449s
  1452  1369 -16176.342  261 11069 -14640.000 -16176.342  10.5%  62.4 1468s
  1453  1370 -16175.874  198 11133 -14640.000 -16175.874  10.5%  62.4 1479s
  1454  1370 -16175.711  231 11152 -14640.000 -16175.711  10.5%  62.4 1483s
  1455  1371 -16175.651  136 11183 -14640.000 -16175.651  10.5%  62.3 1487s
  1458  1373 -16175.623  274 11206 -14640.000 -16175.623  10.5%  62.2 1492s
  1459  1374 -15600.500  440 11051 -14640.000 -16144.824  10.3%  62.1 1613s
  1460  1374 -16137.723  141 11166 -14640.000 -16137.723  10.2%  62.1 1677s
  1461  1375 -16136.258  225 11210 -14640.000 -16136.258  10.2%  62.1 1704s
  1462  1376 -16135.960  192 11217 -14640.000 -16135.960  10.2%  62.0 1711s
  1464  1377 -16135.774  168 11254 -14640.000 -16135.774  10.2%  61.9 1719s
  1465  1378 -14793.500  616 11270 -14640.000 -16135.757  10.2%  61.9 1720s
  1468  1380 -16135.730  180 11286 -14640.000 -16135.730  10.2%  61.8 1726s
  1469  1380 -15272.000  510 11243 -14640.000 -16106.542  10.0%  61.7 1850s
  1470  1381 -16100.465   32 11332 -14640.000 -16100.465  10.0%  61.7 1911s
  1471  1382 -16099.404  207 11391 -14640.000 -16099.404  10.0%  61.6 1928s
  1472  1382 -14823.500  607 11400 -14640.000 -16099.156  10.0%  61.6 1934s
  1473  1383 -14690.500  651 11429 -14640.000 -16099.039  10.0%  61.6 1938s
  1474  1384 -16099.009   35 11437 -14640.000 -16099.009  10.0%  61.5 1940s
  1477  1386 -16098.970  242 11457 -14640.000 -16098.970  10.0%  61.4 1945s

Cutting planes:
  Gomory: 86
  MIR: 434
  Flow cover: 3701
  Zero half: 1647
  Mod-K: 92
  RLT: 484
  BQP: 672

Explored 1477 nodes (1488056 simplex iterations) in 2048.00 seconds (2828.95 work units)
Thread count was 1 (of 72 available processors)

Solution count 4: -14640 -14582 -4126 0 

Time limit reached
Best objective -1.464000000000e+04, best bound -1.609800000000e+04, gap 9.9590%

User-callback calls 12963, time in user-callback 0.07 sec

BQP_SOLUTION, 2396, 10889, -5062.000000, 2048.001923, 1, 1, -1, 1, -1, -1, 1, 1, -1, 1, -1, 1, 1, -1, 1, -1, 1, -1, 1, -1, 1, 1, -1, -1, 1, 1, 1, -1, 1, -1, 1, 1, -1, 1, 1, -1, 1, 1, -1, 1, 1, 1, 1, -1, 1, 1, 1, -1, 1, -1, 1, 1, -1, 1, 1, -1, -1, 1, -1, 1, 1, 1, -1, -1, 1, 1, 1, -1, 1, 1, 1, 1, -1, -1, -1, -1, -1, 1, 1, -1, 1, 1, -1, -1, -1, 1, -1, 1, 1, 1, 1, 1, -1, -1, -1, 1, -1, 1, 1, 1, 1, 1, 1, -1, -1, 1, -1, -1, 1, 1, 1, 1, -1, -1, -1, 1, -1, 1, 1, 1, 1, 1, -1, -1, 1, -1, -1, 1, 1, 1, 1, 1, -1, 1, -1, 1, -1, 1, 1, -1, 1, 1, 1, -1, -1, 1, 1, 1, -1, 1, 1, -1, -1, -1, 1, -1, -1, 1, 1, -1, 1, 1, -1, -1, -1, -1, -1, 1, -1, 1, 1, 1, 1, -1, -1, -1, -1, 1, 1, 1, 1, 1, 1, -1, 1, -1, 1, 1, 1, -1, 1, -1, 1, 1, 1, 1, -1, 1, 1, 1, 1, -1, 1, -1, -1, -1, 1, 1, 1, -1, 1, 1, 1, 1, -1, 1, -1, 1, 1, 1, 1, -1, 1, -1, 1, -1, 1, 1, 1, -1, 1, 1, 1, -1, 1, -1, 1, 1, 1, -1, -1, 1, -1, 1, -1, 1, 1, 1, 1, -1, 1, -1, -1, 1, -1, 1, 1, 1, -1, -1, 1, 1, 1, 1, -1, 1, 1, 1, -1, -1, -1, -1, 1, -1, -1, 1, 1, 1, 1, 1, 1, 1, 1, 1, -1, 1, 1, 1, 1, -1, -1, -1, 1, 1, -1, -1, 1, 1, -1, 1, 1, -1, 1, -1, -1, -1, 1, 1, 1, 1, -1, -1, 1, -1, -1, 1, 1, 1, 1, -1, -1, -1, 1, 1, -1, 1, -1, 1, 1, -1, 1, 1, 1, -1, -1, 1, 1, 1, -1, 1, -1, 1, 1, -1, -1, 1, 1, -1, 1, -1, -1, -1, 1, -1, -1, 1, -1, -1, -1, 1, 1, -1, -1, -1, 1, 1, -1, 1, -1, 1, 1, 1, -1, -1, 1, 1, 1, 1, 1, 1, 1, 1, 1, -1, 1, 1, -1, 1, 1, 1, 1, 1, -1, -1, -1, 1, -1, 1, 1, 1, 1, 1, 1, -1, 1, 1, 1, 1, 1, 1, 1, 1, -1, 1, -1, -1, 1, 1, 1, -1, 1, -1, -1, 1, 1, -1, 1, 1, 1, 1, 1, -1, -1, -1, 1, -1, 1, 1, -1, -1, 1, 1, 1, -1, 1, -1, 1, 1, 1, 1, 1, -1, 1, -1, 1, 1, -1, 1, 1, -1, 1, 1, -1, -1, -1, 1, -1, 1, -1, 1, -1, -1, 1, -1, 1, 1, 1, 1, 1, -1, 1, -1, 1, 1, -1, -1, 1, 1, -1, -1, 1, 1, 1, -1, -1, -1, 1, -1, 1, -1, -1, -1, 1, -1, 1, 1, 1, 1, 1, -1, 1, -1, 1, -1, 1, -1, 1, 1, 1, -1, -1, 1, 1, 1, -1, 1, 1, 1, 1, -1, -1, -1, 1, -1, -1, 1, -1, 1, 1, -1, -1, -1, -1, -1, -1, 1, 1, 1, -1, 1, -1, 1, 1, -1, -1, -1, 1, 1, 1, -1, 1, -1, -1, -1, -1, -1, -1, 1, 1, 1, 1, -1, -1, 1, -1, 1, -1, 1, 1, 1, -1, 1, -1, 1, -1, 1, -1, 1, 1, 1, -1, -1, -1, 1, -1, 1, -1, 1, 1, 1, -1, -1, 1, -1, 1, 1, 1, 1, 1, 1, -1, -1, 1, -1, -1, -1, 1, 1, -1, 1, -1, -1, 1, -1, 1, 1, -1, 1, -1, 1, 1, -1, 1, -1, 1, 1, 1, 1, -1, 1, 1, -1, 1, -1, 1, -1, 1, 1, 1, 1, -1, 1, 1, -1, 1, -1, 1, 1, 1, 1, -1, 1, 1, -1, 1, -1, 1, 1, 1, 1, 1, 1, 1, 1, -1, 1, 1, -1, 1, 1, -1, -1, 1, 1, -1, 1, -1, -1, 1, 1, -1, 1, 1, 1, -1, 1, 1, 1, 1, 1, -1, 1, 1, -1, 1, -1, 1, 1, 1, 1, -1, 1, 1, -1, -1, 1, 1, -1, 1, -1, -1, 1, 1, -1, 1, 1, 1, 1, 1, 1, 1, 1, -1, 1, -1, 1, -1, 1, 1, 1, 1, 1, 1, -1, -1, -1, -1, 1, 1, 1, 1, 1, -1, 1, -1, 1, 1, 1, 1, 1, -1, 1, -1, 1, 1, -1, 1, -1, 1, 1, -1, 1, 1, 1, -1, 1, -1, 1, 1, 1, -1, 1, 1, 1, 1, 1, -1, 1, 1, -1, 1, 1, -1, 1, 1, -1, 1, 1, 1, 1, 1, 1, -1, -1, 1, 1, -1, 1, 1, 1, -1, 1, 1, -1, -1, 1, 1, -1, 1, 1, -1, -1, -1, -1, 1, -1, 1, 1, -1, 1, 1, 1, -1, -1, -1, 1, 1, 1, 1, 1, -1, -1, -1, 1, -1, 1, 1, -1, 1, 1, -1, 1, 1, -1, 1, 1, -1, 1, 1, -1, -1, 1, 1, -1, 1, 1, -1, -1, 1, -1, -1, -1, 1, -1, 1, 1, -1, -1, 1, -1, -1, -1, 1, -1, -1, 1, -1, -1, 1, -1, -1, 1, 1, 1, 1, 1, 1, -1, 1, -1, -1, 1, 1, -1, 1, -1, 1, 1, 1, -1, -1, 1, -1, 1, 1, 1, 1, -1, 1, 1, -1, 1, 1, -1, 1, 1, 1, -1, 1, 1, 1, -1, 1, 1, -1, 1, 1, -1, 1, -1, -1, -1, 1, 1, 1, -1, 1, -1, 1, -1, -1, -1, 1, 1, -1, -1, 1, -1, -1, 1, -1, 1, 1, 1, 1, -1, -1, -1, 1, -1, -1, 1, 1, 1, 1, 1, -1, -1, -1, 1, -1, 1, 1, 1, -1, 1, 1, -1, -1, 1, -1, 1, 1, 1, 1, -1, -1, 1, -1, 1, -1, -1, 1, 1, 1, -1, 1, -1, -1, 1, -1, 1, 1, 1, 1, -1, 1, -1, -1, 1, -1, 1, 1, -1, 1, 1, -1, -1, -1, 1, -1, 1, 1, 1, 1, 1, 1, -1, -1, 1, -1, -1, 1, 1, 1, -1, -1, -1, 1, -1, 1, 1, 1, 1, 1, 1, 1, -1, -1, 1, 1, 1, 1, 1, 1, 1, -1, 1, -1, 1, -1, 1, -1, 1, -1, 1, -1, -1, -1, -1, 1, 1, -1, -1, 1, -1, 1, 1, -1, 1, -1, -1, 1, 1, 1, 1, -1, -1, -1, -1, -1, 1, 1, 1, 1, -1, -1, 1, -1, -1, -1, 1, 1, 1, 1, 1, -1, -1, -1, 1, -1, 1, 1, 1, 1, 1, 1, -1, 1, -1, 1, 1, 1, -1, 1, 1, -1, -1, 1, -1, -1, 1, -1, 1, 1, 1, -1, -1, -1, -1, -1, 1, 1, 1, 1, -1, -1, -1, 1, -1, -1, 1, 1, 1, 1, 1, -1, -1, 1, 1, -1, -1, 1, 1, 1, 1, 1, -1, 1, -1, 1, -1, 1, 1, -1, 1, -1, 1, -1, -1, -1, 1, -1, -1, 1, 1, -1, -1, -1, 1, 1, 1, -1, -1, -1, 1, 1, 1, -1, -1, 1, 1, -1, -1, 1, -1, 1, -1, -1, -1, 1, 1, -1, -1, -1, 1, 1, -1, -1, -1, -1, 1, -1, -1, -1, -1, 1, -1, -1, -1, 1, -1, -1, -1, -1, 1, -1, -1, -1, 1, 1, -1, -1, -1, -1, 1, 1, -1, -1, 1, -1, 1, -1, -1, 1, 1, 1, -1, -1, -1, -1, 1, -1, -1, -1, 1, 1, 1, -1, 1, -1, 1, 1, 1, -1, 1, 1, -1, -1, 1, -1, 1, -1, -1, -1, 1, -1, -1, -1, 1, -1, 1, -1, 1, 1, 1, -1, -1, -1, 1, -1, 1, 1, 1, -1, 1, 1, -1, 1, 1, 1, -1, 1, -1, 1, -1, 1, -1, -1, 1, -1, -1, 1, -1, 1, -1, 1, -1, 1, -1, -1, 1, 1, 1, -1, -1, 1, -1, 1, 1, -1, 1, 1, 1, -1, 1, 1, -1, -1, 1, -1, 1, 1, -1, 1, -1, 1, -1, 1, -1, -1, 1, 1, 1, 1, -1, 1, 1, -1, 1, -1, 1, -1, 1, 1, -1, 1, -1, 1, 1, -1, 1, -1, 1, 1, -1, 1, -1, -1, 1, -1, 1, 1, -1, 1, -1, 1, -1, 1, 1, -1, 1, 1, -1, 1, 1, 1, 1, -1, -1, 1, 1, 1, -1, 1, 1, 1, 1, -1, 1, 1, 1, 1, -1, 1, 1, 1, 1, -1, -1, 1, 1, -1, 1, 1, 1, 1, 1, -1, 1, 1, -1, -1, 1, 1, 1, 1, 1, -1, 1, -1, 1, 1, -1, 1, 1, 1, 1, 1, -1, 1, 1, -1, 1, -1, 1, 1, -1, -1, 1, 1, -1, -1, 1, -1, 1, 1, 1, -1, -1, 1, 1, -1, 1, 1, 1, 1, 1, -1, -1, 1, -1, -1, 1, -1, 1, 1, -1, -1, 1, 1, -1, -1, 1, 1, 1, 1, 1, -1, -1, -1, 1, -1, 1, 1, 1, 1, -1, 1, -1, 1, 1, -1, 1, 1, -1, 1, 1, -1, -1, 1, 1, -1, 1, 1, -1, 1, 1, 1, -1, -1, -1, -1, 1, -1, -1, 1, 1, -1, -1, 1, -1, 1, 1, 1, 1, 1, 1, 1, 1, 1, -1, 1, -1, 1, -1, 1, -1, 1, 1, -1, -1, -1, 1, -1, 1, 1, -1, 1, -1, 1, -1, 1, -1, -1, 1, -1, 1, -1, -1, 1, -1, 1, -1, -1, -1, 1, 1, -1, 1, -1, -1, 1, 1, 1, -1, -1, 1, 1, -1, -1, -1, 1, -1, 1, -1, 1, 1, 1, 1, -1, -1, 1, -1, 1, -1, 1, 1, -1, 1, -1, -1, 1, -1, -1, -1, -1, 1, -1, 1, -1, -1, 1, 1, -1, -1, 1, 1, 1, -1, -1, -1, 1, -1, -1, -1, 1, 1, -1, 1, 1, -1, -1, 1, -1, 1, 1, -1, 1, -1, -1, 1, -1, 1, -1, 1, 1, -1, 1, -1, 1, -1, 1, -1, -1, -1, 1, 1, 1, 1, 1, 1, -1, -1, -1, 1, 1, 1, 1, 1, 1, -1, 1, -1, -1, -1, 1, 1, 1, 1, 1, 1, 1, -1, -1, -1, 1, -1, 1, -1, 1, -1, -1, -1, -1, -1, -1, -1, 1, -1, 1, 1, -1, 1, -1, -1, 1, 1, 1, 1, 1, 1, -1, -1, -1, 1, -1, -1, 1, 1, 1, 1, -1, -1, -1, -1, -1, 1, 1, -1, 1, 1, 1, -1, -1, 1, 1, -1, 1, 1, 1, 1, -1, 1, -1, -1, -1, -1, 1, 1, 1, 1, -1, -1, -1, 1, -1, 1, 1, 1, 1, 1, -1, -1, -1, 1, 1, 1, 1, -1, 1, -1, -1, 1, 1, -1, 1, 1, 1, 1, 1, 1, 1, -1, 1, -1, 1, -1, 1, 1, 1, 1, 1, -1, 1, -1, -1, 1, 1, -1, 1, 1, 1, 1, -1, -1, -1, -1, 1, -1, 1, -1, 1, 1, -1, 1, 1, 1, -1, 1, -1, 1, -1, 1, -1, 1, 1, -1, -1, 1, 1, -1, 1, 1, -1, -1, 1, 1, -1, -1, 1, -1, -1, 1, -1, -1, 1, 1, -1, 1, -1, -1, -1, 1, 1, -1, 1, -1, -1, -1, -1, -1, 1, 1, -1, 1, 1, 1, -1, 1, -1, 1, -1, -1, -1, -1, 1, -1, -1, 1, 1, -1, -1, -1, -1, 1, 1, -1, -1, -1, 1, 1, 1, -1, -1, 1, 1, 1, -1, -1, -1, 1, -1, -1, 1, -1, 1, 1, -1, 1, 1, -1, 1, -1, -1, -1, 1, -1, -1, 1, -1, -1, 1, 1, -1, -1, 1, 1, -1, -1, 1, -1, 1, -1, -1, -1, 1, -1, 1, 1, 1, 1, -1, -1, -1, -1, 1, 1, -1, 1, 1, -1, 1, -1, -1, -1, -1, 1, -1, -1, -1, -1, -1, -1, -1, -1, -1, 1, -1, 1, 1, 1, 1, -1, 1, -1, -1, 1, -1, -1, -1, 1, 1, -1, 1, -1, -1, 1, -1, -1, 1, -1, 1, -1, 1, -1, -1, -1, -1, -1, -1, 1, -1, 1, -1, -1, 1, -1, -1, 1, 1, -1, -1, 1, -1, -1, 1, -1, 1, -1, -1, -1, 1, 1, -1, 1, -1, -1, 1, -1, -1, 1, -1, 1, -1, -1, -1, -1, -1, -1, 1, -1, -1, 1, -1, 1, -1, -1, 1, -1, 1, -1, 1, -1, -1, -1, -1, -1, 1, 1, -1, 1, -1, -1, 1, 1, 1, -1, 1, -1, -1, -1, 1, -1, 1, -1, 1, -1, -1, 1, -1, -1, 1, -1, 1, -1, 1, -1, -1, 1, -1, -1, 1, -1, -1, 1, -1, -1, -1, -1, -1, 1, -1, -1, -1, 1, -1, -1, -1, -1, -1, -1, 1, -1, 1, -1, -1, -1, -1, -1, -1, 1, -1, -1, -1, 1, -1, -1, -1, -1, 1, 1, -1, -1, 1, 1, -1, 1, 1, -1, -1, -1, -1, -1, -1, 1, -1, 1, -1, -1, -1, 1, 1, 1, 1, 1, 1, -1, 1, -1, -1, -1, 1, 1, -1, 1, -1, -1, 1, -1, 1, 1, -1, 1, 1, 1, -1, 1, -1, -1, -1, -1, -1, 1, -1, 1, -1, 1, -1, -1, -1, -1, 1, 1, 1, 1, 1, 1, 1, -1, -1, -1, -1, 1, 1, 1, -1, -1, 1, -1, -1, -1, 1, 1, 1, 1, -1, -1, 1, -1, -1, -1, -1, 1, 1, 1, 1, 1, -1, 1, -1, -1, -1, 1, 1, 1, -1, 1, 1, -1, 1, -1, -1, 1, 1, 1, -1, 1, -1, 1, -1, -1, 1, 1, 1, 1, -1, 1, -1, 1, -1, -1, 1, 1, 1, 1, -1, 1, -1, -1, 1, -1, -1, 1, 1, 1, -1, 1, 1, -1, -1, -1, -1, 1, 1, -1, 1, 1, 1, -1, -1, 1, 1, 1, -1, 1, 1, 1, 1, -1, -1, -1, -1, 1, 1, 1, 1, -1, 1, -1, 1, -1, -1, -1, 1, -1, 1, -1, 1, -1, -1, 1, -1, 1, 1, -1, 1, -1, -1, -1, 1, -1, 1, 1, 1, 1, -1, -1, 1, -1, -1, 1, 1, 1, 1, -1, 1, 1, 1, -1, -1, 1, -1, -1, 1, -1
BQP_DATA, 2396, 10889, -5062.000000, -6520.000000, -14640.000000, -16098.000000, 2048.001923, 5960, 1477
